p cnf 120 628
1 2 3 0
4 5 6 0
7 8 9 0
10 11 12 0
13 14 15 0
16 17 18 0
19 20 21 0
22 23 24 0
25 26 27 0
28 29 30 0
31 32 33 0
34 35 36 0
37 38 39 0
40 41 42 0
43 44 45 0
46 47 48 0
49 50 51 0
52 53 54 0
55 56 57 0
58 59 60 0
61 62 63 0
64 65 66 0
67 68 69 0
70 71 72 0
73 74 75 0
76 77 78 0
79 80 81 0
82 83 84 0
85 86 87 0
88 89 90 0
91 92 93 0
94 95 96 0
97 98 99 0
100 101 102 0
103 104 105 0
106 107 108 0
109 110 111 0
112 113 114 0
115 116 117 0
118 119 120 0
-1 -2 0
-1 -3 0
-2 -3 0
-4 -5 0
-4 -6 0
-5 -6 0
-7 -8 0
-7 -9 0
-8 -9 0
-10 -11 0
-10 -12 0
-11 -12 0
-13 -14 0
-13 -15 0
-14 -15 0
-16 -17 0
-16 -18 0
-17 -18 0
-19 -20 0
-19 -21 0
-20 -21 0
-22 -23 0
-22 -24 0
-23 -24 0
-25 -26 0
-25 -27 0
-26 -27 0
-28 -29 0
-28 -30 0
-29 -30 0
-31 -32 0
-31 -33 0
-32 -33 0
-34 -35 0
-34 -36 0
-35 -36 0
-37 -38 0
-37 -39 0
-38 -39 0
-40 -41 0
-40 -42 0
-41 -42 0
-43 -44 0
-43 -45 0
-44 -45 0
-46 -47 0
-46 -48 0
-47 -48 0
-49 -50 0
-49 -51 0
-50 -51 0
-52 -53 0
-52 -54 0
-53 -54 0
-55 -56 0
-55 -57 0
-56 -57 0
-58 -59 0
-58 -60 0
-59 -60 0
-61 -62 0
-61 -63 0
-62 -63 0
-64 -65 0
-64 -66 0
-65 -66 0
-67 -68 0
-67 -69 0
-68 -69 0
-70 -71 0
-70 -72 0
-71 -72 0
-73 -74 0
-73 -75 0
-74 -75 0
-76 -77 0
-76 -78 0
-77 -78 0
-79 -80 0
-79 -81 0
-80 -81 0
-82 -83 0
-82 -84 0
-83 -84 0
-85 -86 0
-85 -87 0
-86 -87 0
-88 -89 0
-88 -90 0
-89 -90 0
-91 -92 0
-91 -93 0
-92 -93 0
-94 -95 0
-94 -96 0
-95 -96 0
-97 -98 0
-97 -99 0
-98 -99 0
-100 -101 0
-100 -102 0
-101 -102 0
-103 -104 0
-103 -105 0
-104 -105 0
-106 -107 0
-106 -108 0
-107 -108 0
-109 -110 0
-109 -111 0
-110 -111 0
-112 -113 0
-112 -114 0
-113 -114 0
-115 -116 0
-115 -117 0
-116 -117 0
-118 -119 0
-118 -120 0
-119 -120 0
-1 -31 0
-2 -32 0
-3 -33 0
-1 -40 0
-2 -41 0
-3 -42 0
-1 -73 0
-2 -74 0
-3 -75 0
-1 -100 0
-2 -101 0
-3 -102 0
-1 -103 0
-2 -104 0
-3 -105 0
-1 -118 0
-2 -119 0
-3 -120 0
-4 -28 0
-5 -29 0
-6 -30 0
-4 -49 0
-5 -50 0
-6 -51 0
-4 -70 0
-5 -71 0
-6 -72 0
-4 -85 0
-5 -86 0
-6 -87 0
-7 -28 0
-8 -29 0
-9 -30 0
-7 -37 0
-8 -38 0
-9 -39 0
-7 -40 0
-8 -41 0
-9 -42 0
-7 -58 0
-8 -59 0
-9 -60 0
-7 -70 0
-8 -71 0
-9 -72 0
-7 -79 0
-8 -80 0
-9 -81 0
-7 -91 0
-8 -92 0
-9 -93 0
-7 -94 0
-8 -95 0
-9 -96 0
-7 -106 0
-8 -107 0
-9 -108 0
-7 -112 0
-8 -113 0
-9 -114 0
-10 -13 0
-11 -14 0
-12 -15 0
-10 -16 0
-11 -17 0
-12 -18 0
-10 -19 0
-11 -20 0
-12 -21 0
-10 -28 0
-11 -29 0
-12 -30 0
-10 -61 0
-11 -62 0
-12 -63 0
-10 -64 0
-11 -65 0
-12 -66 0
-10 -70 0
-11 -71 0
-12 -72 0
-10 -85 0
-11 -86 0
-12 -87 0
-10 -103 0
-11 -104 0
-12 -105 0
-10 -115 0
-11 -116 0
-12 -117 0
-13 -25 0
-14 -26 0
-15 -27 0
-13 -37 0
-14 -38 0
-15 -39 0
-13 -55 0
-14 -56 0
-15 -57 0
-13 -64 0
-14 -65 0
-15 -66 0
-13 -70 0
-14 -71 0
-15 -72 0
-13 -82 0
-14 -83 0
-15 -84 0
-13 -88 0
-14 -89 0
-15 -90 0
-16 -19 0
-17 -20 0
-18 -21 0
-16 -25 0
-17 -26 0
-18 -27 0
-16 -49 0
-17 -50 0
-18 -51 0
-16 -55 0
-17 -56 0
-18 -57 0
-16 -82 0
-17 -83 0
-18 -84 0
-16 -103 0
-17 -104 0
-18 -105 0
-16 -118 0
-17 -119 0
-18 -120 0
-19 -61 0
-20 -62 0
-21 -63 0
-19 -70 0
-20 -71 0
-21 -72 0
-19 -100 0
-20 -101 0
-21 -102 0
-19 -118 0
-20 -119 0
-21 -120 0
-22 -34 0
-23 -35 0
-24 -36 0
-22 -37 0
-23 -38 0
-24 -39 0
-22 -67 0
-23 -68 0
-24 -69 0
-22 -100 0
-23 -101 0
-24 -102 0
-22 -109 0
-23 -110 0
-24 -111 0
-25 -31 0
-26 -32 0
-27 -33 0
-25 -55 0
-26 -56 0
-27 -57 0
-25 -58 0
-26 -59 0
-27 -60 0
-25 -64 0
-26 -65 0
-27 -66 0
-25 -79 0
-26 -80 0
-27 -81 0
-25 -106 0
-26 -107 0
-27 -108 0
-25 -112 0
-26 -113 0
-27 -114 0
-28 -58 0
-29 -59 0
-30 -60 0
-28 -73 0
-29 -74 0
-30 -75 0
-28 -76 0
-29 -77 0
-30 -78 0
-28 -103 0
-29 -104 0
-30 -105 0
-31 -37 0
-32 -38 0
-33 -39 0
-31 -49 0
-32 -50 0
-33 -51 0
-31 -58 0
-32 -59 0
-33 -60 0
-31 -67 0
-32 -68 0
-33 -69 0
-31 -103 0
-32 -104 0
-33 -105 0
-34 -52 0
-35 -53 0
-36 -54 0
-34 -55 0
-35 -56 0
-36 -57 0
-34 -61 0
-35 -62 0
-36 -63 0
-34 -73 0
-35 -74 0
-36 -75 0
-34 -79 0
-35 -80 0
-36 -81 0
-34 -91 0
-35 -92 0
-36 -93 0
-34 -97 0
-35 -98 0
-36 -99 0
-34 -100 0
-35 -101 0
-36 -102 0
-37 -70 0
-38 -71 0
-39 -72 0
-37 -79 0
-38 -80 0
-39 -81 0
-37 -88 0
-38 -89 0
-39 -90 0
-37 -103 0
-38 -104 0
-39 -105 0
-37 -109 0
-38 -110 0
-39 -111 0
-40 -61 0
-41 -62 0
-42 -63 0
-40 -73 0
-41 -74 0
-42 -75 0
-40 -76 0
-41 -77 0
-42 -78 0
-40 -85 0
-41 -86 0
-42 -87 0
-40 -97 0
-41 -98 0
-42 -99 0
-40 -100 0
-41 -101 0
-42 -102 0
-40 -112 0
-41 -113 0
-42 -114 0
-40 -115 0
-41 -116 0
-42 -117 0
-43 -76 0
-44 -77 0
-45 -78 0
-43 -79 0
-44 -80 0
-45 -81 0
-43 -82 0
-44 -83 0
-45 -84 0
-43 -103 0
-44 -104 0
-45 -105 0
-43 -115 0
-44 -116 0
-45 -117 0
-43 -118 0
-44 -119 0
-45 -120 0
-46 -52 0
-47 -53 0
-48 -54 0
-46 -55 0
-47 -56 0
-48 -57 0
-46 -61 0
-47 -62 0
-48 -63 0
-46 -100 0
-47 -101 0
-48 -102 0
-46 -103 0
-47 -104 0
-48 -105 0
-46 -109 0
-47 -110 0
-48 -111 0
-49 -61 0
-50 -62 0
-51 -63 0
-49 -82 0
-50 -83 0
-51 -84 0
-49 -109 0
-50 -110 0
-51 -111 0
-52 -70 0
-53 -71 0
-54 -72 0
-52 -79 0
-53 -80 0
-54 -81 0
-55 -76 0
-56 -77 0
-57 -78 0
-55 -91 0
-56 -92 0
-57 -93 0
-55 -94 0
-56 -95 0
-57 -96 0
-55 -118 0
-56 -119 0
-57 -120 0
-58 -61 0
-59 -62 0
-60 -63 0
-58 -73 0
-59 -74 0
-60 -75 0
-58 -82 0
-59 -83 0
-60 -84 0
-58 -97 0
-59 -98 0
-60 -99 0
-58 -100 0
-59 -101 0
-60 -102 0
-58 -106 0
-59 -107 0
-60 -108 0
-58 -118 0
-59 -119 0
-60 -120 0
-61 -82 0
-62 -83 0
-63 -84 0
-61 -94 0
-62 -95 0
-63 -96 0
-61 -112 0
-62 -113 0
-63 -114 0
-64 -91 0
-65 -92 0
-66 -93 0
-64 -112 0
-65 -113 0
-66 -114 0
-67 -82 0
-68 -83 0
-69 -84 0
-67 -88 0
-68 -89 0
-69 -90 0
-67 -97 0
-68 -98 0
-69 -99 0
-70 -76 0
-71 -77 0
-72 -78 0
-70 -79 0
-71 -80 0
-72 -81 0
-70 -91 0
-71 -92 0
-72 -93 0
-70 -97 0
-71 -98 0
-72 -99 0
-73 -109 0
-74 -110 0
-75 -111 0
-76 -85 0
-77 -86 0
-78 -87 0
-76 -97 0
-77 -98 0
-78 -99 0
-79 -88 0
-80 -89 0
-81 -90 0
-79 -91 0
-80 -92 0
-81 -93 0
-79 -115 0
-80 -116 0
-81 -117 0
-82 -97 0
-83 -98 0
-84 -99 0
-82 -103 0
-83 -104 0
-84 -105 0
-85 -88 0
-86 -89 0
-87 -90 0
-85 -97 0
-86 -98 0
-87 -99 0
-85 -115 0
-86 -116 0
-87 -117 0
-88 -91 0
-89 -92 0
-90 -93 0
-88 -109 0
-89 -110 0
-90 -111 0
-91 -94 0
-92 -95 0
-93 -96 0
-91 -106 0
-92 -107 0
-93 -108 0
-91 -112 0
-92 -113 0
-93 -114 0
-94 -97 0
-95 -98 0
-96 -99 0
-94 -106 0
-95 -107 0
-96 -108 0
-97 -109 0
-98 -110 0
-99 -111 0
-97 -115 0
-98 -116 0
-99 -117 0
-100 -115 0
-101 -116 0
-102 -117 0
-103 -112 0
-104 -113 0
-105 -114 0
-103 -115 0
-104 -116 0
-105 -117 0
-106 -109 0
-107 -110 0
-108 -111 0
-106 -112 0
-107 -113 0
-108 -114 0
-115 -118 0
-116 -119 0
-117 -120 0
